; benchmark generated from python API
(set-info :status unknown)
(declare-fun S_4 () Real)
(declare-fun A_4 () Real)
(declare-fun L_2 () Real)
(declare-fun S_3 () Real)
(declare-fun S_0 () Real)
(declare-fun C () Real)
(declare-fun S_1 () Real)
(declare-fun L_1 () Real)
(declare-fun A_1 () Real)
(declare-fun S_2 () Real)
(declare-fun A_0 () Real)
(declare-fun L_0 () Real)
(declare-fun A_3 () Real)
(declare-fun L0 () Real)
(declare-fun A_2 () Real)
(assert
 (let (($x37 (>= L0 0.0)))
 (let (($x599 (>= C 5.0)))
 (let ((?x501 (* (- 1.0) A_4)))
 (let ((?x513 (* (- 1.0) A_1)))
 (let ((?x581 (* (- 2.0) C)))
 (let (($x54 (= L_1 L_0)))
 (let (($x373 (<= 0.0 (+ L_1 ?x513 C S_0))))
 (let (($x8408 (not $x373)))
 (let (($x8933 (<= (+ (* (- 1.0) L_0) (* 2.0 C) A_1 (* (- 1.0) S_4)) 0.0)))
 (let (($x825 (<= (+ (* (- 1.0) L_2) A_3 (* (- 1.0) S_4)) 0.0)))
 (let (($x10244 (or $x8408 (<= (+ (* (- 1.0) L_0) C A_1 (* (- 1.0) S_3)) 0.0))))
 (let (($x64 (= L_2 L_1)))
 (let (($x8912 (<= 0.0 (+ L_0 C ?x513 S_0))))
 (let (($x8729 (<= (+ (* 3.0 C) S_0 (* (- 1.0) S_4)) 0.0)))
 (let (($x8854 (<= (+ (* (- 1.0) C) L_2 (* (- 1.0) A_2) S_4 A_3 ?x501) 0.0)))
 (let (($x8775 (or $x64 $x8408 (<= (+ (* (- 1.0) L_0) C A_1 L_2 (* (- 1.0) A_2)) (- 5.0)))))
 (let (($x1275 (= L_2 L_0)))
 (let (($x546 (not (= L_0 L_1))))
 (let (($x8837 (or (<= 0.0 (+ ?x513 (* (- 1.0) C) (* (- 1.0) L_2) A_2 L_0)) $x546 $x1275)))
 (let (($x8831 (or $x64 (<= (+ (* 2.0 C) L_2 (* (- 1.0) A_2) S_0) (- 5.0)) $x373)))
 (let (($x1004 (not (<= 0.0 (+ L_1 (* (- 1.0) L_2))))))
 (let (($x349 (or $x54 $x64 (= (+ (* (- 1.0) L_1) A_1 C L_2 (* (- 1.0) A_2)) 0.0))))
 (let (($x120 (>= S_4 S_3)))
 (let (($x36 (>= L_0 L0)))
 (let (($x111 (>= S_1 S_0)))
 (let (($x114 (>= S_2 S_1)))
 (let (($x117 (>= S_3 S_2)))
 (let (($x122 (>= A_1 A_0)))
 (let (($x124 (>= A_3 A_2)))
 (let (($x125 (>= A_4 A_3)))
 (and (<= (+ A_1 (* (- 1.0) L_1)) S_3) (not (<= (+ A_2 (* (- 1.0) L_2)) S_3)) $x125 $x124 $x122 $x117 $x114 $x111 $x36 $x120 $x349 (or $x54 (<= (+ (* 2.0 C) S_0 (* (- 1.0) S_3)) 0.0)) (or $x54 (not (<= 0.0 (+ (* (- 1.0) L_1) L_0)))) (or $x54 (<= (+ (* (- 1.0) C) ?x513 L_1 S_2) (- 5.0))) (or $x54 (<= (+ L_1 ?x513 S_1) (- 5.0))) (or (<= (+ C S_0 (* (- 1.0) S_2)) 0.0) $x373) (<= (+ (* (- 4.0) C) (* (- 1.0) S_1) S_4) 0.0) (or $x54 $x1004 (<= (+ (* (- 1.0) C) A_2 ?x513) 0.0)) (or $x64 $x1004) (<= (+ (* (- 5.0) C) (* (- 1.0) S_0) S_4) 0.0) (<= (+ (* (- 1.0) C) L_0 S_1 (* (- 1.0) A_0)) 0.0) (or $x64 (<= (+ L_2 (* (- 1.0) A_2) S_2) (- 5.0))) (or $x825 (<= (+ C (* (- 1.0) S_4) S_2) 0.0)) $x8831 $x8837 $x8775 (or $x54 (<= (+ L_1 C ?x513 S_0) (- 5.0))) (or $x54 $x825 $x8729) (<= (+ (* (- 3.0) C) L_0 S_3 (* (- 1.0) A_0)) 0.0) (<= (+ (* (- 4.0) C) L_0 S_4 (* (- 1.0) A_0)) 0.0) (<= (+ (* (- 3.0) C) (* (- 1.0) S_1) S_3) 0.0) (or $x64 $x8854) (or $x54 (<= (+ (* (- 3.0) C) L_1 ?x513 S_4) (- 5.0))) (or $x64 (<= (+ ?x581 L_2 (* (- 1.0) A_2) S_4) (- 5.0))) (or $x825 (<= (+ (* 2.0 C) S_1 (* (- 1.0) S_4)) 0.0)) (or (<= (+ (* 2.0 C) S_0 (* (- 1.0) S_3)) 0.0) $x8912) (or $x825 $x8729 $x8912) (or $x64 (<= (+ C L_2 (* (- 1.0) A_2) S_1) (- 5.0))) $x10244 (or $x825 $x8408 $x8933) (or (<= (+ (* (- 1.0) L_0) A_1 (* (- 1.0) S_2)) 0.0) $x8408) (<= (+ L_0 ?x581 ?x513 S_3) 0.0) (<= (+ L_0 (* (- 3.0) C) ?x513 S_4) 0.0) (or $x54 (<= (+ L_1 ?x581 ?x513 S_4 A_3 ?x501) 0.0)) $x599 $x37 (<= (+ S_0 L_0 (* (- 1.0) A_0)) 0.0) (<= (+ (* (- 1.0) C) L_2 (* (- 1.0) A_3) S_4) 0.0) (<= (+ C S_1 (* (- 1.0) S_3)) 0.0) (<= (+ ?x581 S_4 (* (- 1.0) S_3)) 0.0) (<= (+ (* (- 1.0) C) ?x513 L_1 S_2) 0.0) (<= (+ (* (- 3.0) C) (* (- 1.0) S_0) S_2) 0.0) (<= (+ ?x581 L_0 (* (- 1.0) A_0) S_2) 0.0) (<= (+ ?x581 (* (- 1.0) S_1) S_2) 0.0) (<= (+ ?x581 S_3 (* (- 1.0) S_2)) 0.0) (<= (+ (* (- 3.0) C) S_4 (* (- 1.0) S_2)) 0.0) (<= (+ ?x513 L_1 S_1) 0.0) (<= (+ ?x581 (* (- 1.0) S_0) S_1) 0.0) (<= (+ (* (- 4.0) C) (* (- 1.0) S_0) S_3) 0.0) (<= (+ L_2 ?x501 S_4) 0.0)))))))))))))))))))))))))))))))))
(check-sat)
